
630.0
630.0
1080.0
1170.0
630.0
930.0
630.0
630.0
630.0
630.0
630.0
840.0
630.0
630.0
630.0
630.0
630.0
630.0
1080.0
1140.0
630.0
630.0
1140.0
630.0
630.0
630.0
630.0
1140.0
810.0
1050.0
630.0
1170.0
1170.0
630.0
630.0
630.0
990.0
630.0
1080.0
1200.0